AoPS/c6h398074p2214804.smt2
(set-info :smt-lib-version 2.6)
(set-logic AUFNIRA)
(set-info :source |
Generated by: Mirek Olšák, Mikoláš Janota, Chad E. Brown
Generated on: 2024-04-14
Application: Mathematics challenges involving function synthesis
From a collection by: Vít Musil
Source url: https://prase.cz/library/FunkcionalniRovniceVM/FunkcionalniRovniceVM.pdf
Original source: c6h398074p2214804
|)
(set-info :license "https://creativecommons.org/licenses/by-nc/4.0/")
(set-info :category "crafted")
(set-info :status sat)

; Header
(declare-fun f (Real) Real)
(assert (forall ((x Real)) (=> (> x 0.0) (> (f x) 0.0))))

; Equations
(assert (forall ((a Real) (b Real) (c Real) (d Real)) (=> (and (> a 0.0) (> b 0.0) (> c 0.0) (> d 0.0)) (=> (= (* (* (* a b) c) d) 1.0) (= (* (+ (f a) (f b)) (+ (f c) (f d))) (* (+ a b) (+ c d)))))))

; Find all possible f

(check-sat)
(exit)
(get-model)
